\* Modelo LP *\
Minimize
 obj: 1 x_T1_C1_Day_1_R1 + 1 x_T1_C1_Day_1_R2 + 1 x_T1_C1_Day_1_R3 + 1 x_T1_C1_Day_1_R4 + 1 x_T1_C1_Day_2_R1 + 1 x_T1_C1_Day_2_R2 + 1 x_T1_C1_Day_2_R3 + 1 x_T1_C1_Day_2_R4 + 1 x_T1_C1_Day_3_R1 + 1 x_T1_C1_Day_3_R2 + 1 x_T1_C1_Day_3_R3 + 1 x_T1_C1_Day_3_R4 + 1 x_T1_C1_Day_4_R1 + 1 x_T1_C1_Day_4_R2 + 1 x_T1_C1_Day_4_R3 + 1 x_T1_C1_Day_4_R4 + 1 x_T2_C1_Day_1_R1 + 1 x_T2_C1_Day_1_R2 + 1 x_T2_C1_Day_1_R3 + 1 x_T2_C1_Day_1_R4 + 1 x_T2_C1_Day_2_R1 + 1 x_T2_C1_Day_2_R2 + 1 x_T2_C1_Day_2_R3 + 1 x_T2_C1_Day_2_R4 + 1 x_T2_C1_Day_3_R1 + 1 x_T2_C1_Day_3_R2 + 1 x_T2_C1_Day_3_R3 + 1 x_T2_C1_Day_3_R4 + 1 x_T2_C1_Day_4_R1 + 1 x_T2_C1_Day_4_R2 + 1 x_T2_C1_Day_4_R3 + 1 x_T2_C1_Day_4_R4 + 1 x_T3_C1_Day_1_R1 + 1 x_T3_C1_Day_1_R2 + 1 x_T3_C1_Day_1_R3 + 1 x_T3_C1_Day_1_R4 + 1 x_T3_C1_Day_2_R1 + 1 x_T3_C1_Day_2_R2 + 1 x_T3_C1_Day_2_R3 + 1 x_T3_C1_Day_2_R4 + 1 x_T3_C1_Day_3_R1 + 1 x_T3_C1_Day_3_R2 + 1 x_T3_C1_Day_3_R3 + 1 x_T3_C1_Day_3_R4 + 1 x_T3_C1_Day_4_R1 + 1 x_T3_C1_Day_4_R2 + 1 x_T3_C1_Day_4_R3 + 1 x_T3_C1_Day_4_R4 + 1 x_T4_C1_Day_1_R1 + 1 x_T4_C1_Day_1_R2 + 1 x_T4_C1_Day_1_R3 + 1 x_T4_C1_Day_1_R4 + 1 x_T4_C1_Day_2_R1 + 1 x_T4_C1_Day_2_R2 + 1 x_T4_C1_Day_2_R3 + 1 x_T4_C1_Day_2_R4 + 1 x_T4_C1_Day_3_R1 + 1 x_T4_C1_Day_3_R2 + 1 x_T4_C1_Day_3_R3 + 1 x_T4_C1_Day_3_R4 + 1 x_T4_C1_Day_4_R1 + 1 x_T4_C1_Day_4_R2 + 1 x_T4_C1_Day_4_R3 + 1 x_T4_C1_Day_4_R4 + 1 x_T1_C2_Day_1_R1 + 1 x_T1_C2_Day_1_R2 + 1 x_T1_C2_Day_1_R3 + 1 x_T1_C2_Day_1_R4 + 1 x_T1_C2_Day_2_R1 + 1 x_T1_C2_Day_2_R2 + 1 x_T1_C2_Day_2_R3 + 1 x_T1_C2_Day_2_R4 + 1 x_T1_C2_Day_3_R1 + 1 x_T1_C2_Day_3_R2 + 1 x_T1_C2_Day_3_R3 + 1 x_T1_C2_Day_3_R4 + 1 x_T1_C2_Day_4_R1 + 1 x_T1_C2_Day_4_R2 + 1 x_T1_C2_Day_4_R3 + 1 x_T1_C2_Day_4_R4 + 1 x_T2_C2_Day_1_R1 + 1 x_T2_C2_Day_1_R2 + 1 x_T2_C2_Day_1_R3 + 1 x_T2_C2_Day_1_R4 + 1 x_T2_C2_Day_2_R1 + 1 x_T2_C2_Day_2_R2 + 1 x_T2_C2_Day_2_R3 + 1 x_T2_C2_Day_2_R4 + 1 x_T2_C2_Day_3_R1 + 1 x_T2_C2_Day_3_R2 + 1 x_T2_C2_Day_3_R3 + 1 x_T2_C2_Day_3_R4 + 1 x_T2_C2_Day_4_R1 + 1 x_T2_C2_Day_4_R2 + 1 x_T2_C2_Day_4_R3 + 1 x_T2_C2_Day_4_R4 + 1 x_T3_C2_Day_1_R1 + 1 x_T3_C2_Day_1_R2 + 1 x_T3_C2_Day_1_R3 + 1 x_T3_C2_Day_1_R4 + 1 x_T3_C2_Day_2_R1 + 1 x_T3_C2_Day_2_R2 + 1 x_T3_C2_Day_2_R3 + 1 x_T3_C2_Day_2_R4 + 1 x_T3_C2_Day_3_R1 + 1 x_T3_C2_Day_3_R2 + 1 x_T3_C2_Day_3_R3 + 1 x_T3_C2_Day_3_R4 + 1 x_T3_C2_Day_4_R1 + 1 x_T3_C2_Day_4_R2 + 1 x_T3_C2_Day_4_R3 + 1 x_T3_C2_Day_4_R4 + 1 x_T4_C2_Day_1_R1 + 1 x_T4_C2_Day_1_R2 + 1 x_T4_C2_Day_1_R3 + 1 x_T4_C2_Day_1_R4 + 1 x_T4_C2_Day_2_R1 + 1 x_T4_C2_Day_2_R2 + 1 x_T4_C2_Day_2_R3 + 1 x_T4_C2_Day_2_R4 + 1 x_T4_C2_Day_3_R1 + 1 x_T4_C2_Day_3_R2 + 1 x_T4_C2_Day_3_R3 + 1 x_T4_C2_Day_3_R4 + 1 x_T4_C2_Day_4_R1 + 1 x_T4_C2_Day_4_R2 + 1 x_T4_C2_Day_4_R3 + 1 x_T4_C2_Day_4_R4 + 1 x_T1_C3_Day_1_R1 + 1 x_T1_C3_Day_1_R2 + 1 x_T1_C3_Day_1_R3 + 1 x_T1_C3_Day_1_R4 + 1 x_T1_C3_Day_2_R1 + 1 x_T1_C3_Day_2_R2 + 1 x_T1_C3_Day_2_R3 + 1 x_T1_C3_Day_2_R4 + 1 x_T1_C3_Day_3_R1 + 1 x_T1_C3_Day_3_R2 + 1 x_T1_C3_Day_3_R3 + 1 x_T1_C3_Day_3_R4 + 1 x_T1_C3_Day_4_R1 + 1 x_T1_C3_Day_4_R2 + 1 x_T1_C3_Day_4_R3 + 1 x_T1_C3_Day_4_R4 + 1 x_T2_C3_Day_1_R1 + 1 x_T2_C3_Day_1_R2 + 1 x_T2_C3_Day_1_R3 + 1 x_T2_C3_Day_1_R4 + 1 x_T2_C3_Day_2_R1 + 1 x_T2_C3_Day_2_R2 + 1 x_T2_C3_Day_2_R3 + 1 x_T2_C3_Day_2_R4 + 1 x_T2_C3_Day_3_R1 + 1 x_T2_C3_Day_3_R2 + 1 x_T2_C3_Day_3_R3 + 1 x_T2_C3_Day_3_R4 + 1 x_T2_C3_Day_4_R1 + 1 x_T2_C3_Day_4_R2 + 1 x_T2_C3_Day_4_R3 + 1 x_T2_C3_Day_4_R4 + 1 x_T3_C3_Day_1_R1 + 1 x_T3_C3_Day_1_R2 + 1 x_T3_C3_Day_1_R3 + 1 x_T3_C3_Day_1_R4 + 1 x_T3_C3_Day_2_R1 + 1 x_T3_C3_Day_2_R2 + 1 x_T3_C3_Day_2_R3 + 1 x_T3_C3_Day_2_R4 + 1 x_T3_C3_Day_3_R1 + 1 x_T3_C3_Day_3_R2 + 1 x_T3_C3_Day_3_R3 + 1 x_T3_C3_Day_3_R4 + 1 x_T3_C3_Day_4_R1 + 1 x_T3_C3_Day_4_R2 + 1 x_T3_C3_Day_4_R3 + 1 x_T3_C3_Day_4_R4 + 1 x_T4_C3_Day_1_R1 + 1 x_T4_C3_Day_1_R2 + 1 x_T4_C3_Day_1_R3 + 1 x_T4_C3_Day_1_R4 + 1 x_T4_C3_Day_2_R1 + 1 x_T4_C3_Day_2_R2 + 1 x_T4_C3_Day_2_R3 + 1 x_T4_C3_Day_2_R4 + 1 x_T4_C3_Day_3_R1 + 1 x_T4_C3_Day_3_R2 + 1 x_T4_C3_Day_3_R3 + 1 x_T4_C3_Day_3_R4 + 1 x_T4_C3_Day_4_R1 + 1 x_T4_C3_Day_4_R2 + 1 x_T4_C3_Day_4_R3 + 1 x_T4_C3_Day_4_R4 + 1 x_T1_C4_Day_1_R1 + 1 x_T1_C4_Day_1_R2 + 1 x_T1_C4_Day_1_R3 + 1 x_T1_C4_Day_1_R4 + 1 x_T1_C4_Day_2_R1 + 1 x_T1_C4_Day_2_R2 + 1 x_T1_C4_Day_2_R3 + 1 x_T1_C4_Day_2_R4 + 1 x_T1_C4_Day_3_R1 + 1 x_T1_C4_Day_3_R2 + 1 x_T1_C4_Day_3_R3 + 1 x_T1_C4_Day_3_R4 + 1 x_T1_C4_Day_4_R1 + 1 x_T1_C4_Day_4_R2 + 1 x_T1_C4_Day_4_R3 + 1 x_T1_C4_Day_4_R4 + 1 x_T2_C4_Day_1_R1 + 1 x_T2_C4_Day_1_R2 + 1 x_T2_C4_Day_1_R3 + 1 x_T2_C4_Day_1_R4 + 1 x_T2_C4_Day_2_R1 + 1 x_T2_C4_Day_2_R2 + 1 x_T2_C4_Day_2_R3 + 1 x_T2_C4_Day_2_R4 + 1 x_T2_C4_Day_3_R1 + 1 x_T2_C4_Day_3_R2 + 1 x_T2_C4_Day_3_R3 + 1 x_T2_C4_Day_3_R4 + 1 x_T2_C4_Day_4_R1 + 1 x_T2_C4_Day_4_R2 + 1 x_T2_C4_Day_4_R3 + 1 x_T2_C4_Day_4_R4 + 1 x_T3_C4_Day_1_R1 + 1 x_T3_C4_Day_1_R2 + 1 x_T3_C4_Day_1_R3 + 1 x_T3_C4_Day_1_R4 + 1 x_T3_C4_Day_2_R1 + 1 x_T3_C4_Day_2_R2 + 1 x_T3_C4_Day_2_R3 + 1 x_T3_C4_Day_2_R4 + 1 x_T3_C4_Day_3_R1 + 1 x_T3_C4_Day_3_R2 + 1 x_T3_C4_Day_3_R3 + 1 x_T3_C4_Day_3_R4 + 1 x_T3_C4_Day_4_R1 + 1 x_T3_C4_Day_4_R2 + 1 x_T3_C4_Day_4_R3 + 1 x_T3_C4_Day_4_R4 + 1 x_T4_C4_Day_1_R1 + 1 x_T4_C4_Day_1_R2 + 1 x_T4_C4_Day_1_R3 + 1 x_T4_C4_Day_1_R4 + 1 x_T4_C4_Day_2_R1 + 1 x_T4_C4_Day_2_R2 + 1 x_T4_C4_Day_2_R3 + 1 x_T4_C4_Day_2_R4 + 1 x_T4_C4_Day_3_R1 + 1 x_T4_C4_Day_3_R2 + 1 x_T4_C4_Day_3_R3 + 1 x_T4_C4_Day_3_R4 + 1 x_T4_C4_Day_4_R1 + 1 x_T4_C4_Day_4_R2 + 1 x_T4_C4_Day_4_R3 + 1 x_T4_C4_Day_4_R4
Subject To
 event_Event1: x_T1_C1_Day_1_R1 + x_T1_C1_Day_1_R2 + x_T1_C1_Day_1_R3 + x_T1_C1_Day_1_R4 + x_T1_C1_Day_2_R1 + x_T1_C1_Day_2_R2 + x_T1_C1_Day_2_R3 + x_T1_C1_Day_2_R4 + x_T1_C1_Day_3_R1 + x_T1_C1_Day_3_R2 + x_T1_C1_Day_3_R3 + x_T1_C1_Day_3_R4 + x_T1_C1_Day_4_R1 + x_T1_C1_Day_4_R2 + x_T1_C1_Day_4_R3 + x_T1_C1_Day_4_R4 = 1
 event_Event2: x_T2_C1_Day_1_R1 + x_T2_C1_Day_1_R2 + x_T2_C1_Day_1_R3 + x_T2_C1_Day_1_R4 + x_T2_C1_Day_2_R1 + x_T2_C1_Day_2_R2 + x_T2_C1_Day_2_R3 + x_T2_C1_Day_2_R4 + x_T2_C1_Day_3_R1 + x_T2_C1_Day_3_R2 + x_T2_C1_Day_3_R3 + x_T2_C1_Day_3_R4 + x_T2_C1_Day_4_R1 + x_T2_C1_Day_4_R2 + x_T2_C1_Day_4_R3 + x_T2_C1_Day_4_R4 = 1
 event_Event3: x_T3_C1_Day_1_R1 + x_T3_C1_Day_1_R2 + x_T3_C1_Day_1_R3 + x_T3_C1_Day_1_R4 + x_T3_C1_Day_2_R1 + x_T3_C1_Day_2_R2 + x_T3_C1_Day_2_R3 + x_T3_C1_Day_2_R4 + x_T3_C1_Day_3_R1 + x_T3_C1_Day_3_R2 + x_T3_C1_Day_3_R3 + x_T3_C1_Day_3_R4 + x_T3_C1_Day_4_R1 + x_T3_C1_Day_4_R2 + x_T3_C1_Day_4_R3 + x_T3_C1_Day_4_R4 = 1
 event_Event4: x_T4_C1_Day_1_R1 + x_T4_C1_Day_1_R2 + x_T4_C1_Day_1_R3 + x_T4_C1_Day_1_R4 + x_T4_C1_Day_2_R1 + x_T4_C1_Day_2_R2 + x_T4_C1_Day_2_R3 + x_T4_C1_Day_2_R4 + x_T4_C1_Day_3_R1 + x_T4_C1_Day_3_R2 + x_T4_C1_Day_3_R3 + x_T4_C1_Day_3_R4 + x_T4_C1_Day_4_R1 + x_T4_C1_Day_4_R2 + x_T4_C1_Day_4_R3 + x_T4_C1_Day_4_R4 = 1
 event_Event5: x_T1_C2_Day_1_R1 + x_T1_C2_Day_1_R2 + x_T1_C2_Day_1_R3 + x_T1_C2_Day_1_R4 + x_T1_C2_Day_2_R1 + x_T1_C2_Day_2_R2 + x_T1_C2_Day_2_R3 + x_T1_C2_Day_2_R4 + x_T1_C2_Day_3_R1 + x_T1_C2_Day_3_R2 + x_T1_C2_Day_3_R3 + x_T1_C2_Day_3_R4 + x_T1_C2_Day_4_R1 + x_T1_C2_Day_4_R2 + x_T1_C2_Day_4_R3 + x_T1_C2_Day_4_R4 = 1
 event_Event6: x_T2_C2_Day_1_R1 + x_T2_C2_Day_1_R2 + x_T2_C2_Day_1_R3 + x_T2_C2_Day_1_R4 + x_T2_C2_Day_2_R1 + x_T2_C2_Day_2_R2 + x_T2_C2_Day_2_R3 + x_T2_C2_Day_2_R4 + x_T2_C2_Day_3_R1 + x_T2_C2_Day_3_R2 + x_T2_C2_Day_3_R3 + x_T2_C2_Day_3_R4 + x_T2_C2_Day_4_R1 + x_T2_C2_Day_4_R2 + x_T2_C2_Day_4_R3 + x_T2_C2_Day_4_R4 = 1
 event_Event7: x_T3_C2_Day_1_R1 + x_T3_C2_Day_1_R2 + x_T3_C2_Day_1_R3 + x_T3_C2_Day_1_R4 + x_T3_C2_Day_2_R1 + x_T3_C2_Day_2_R2 + x_T3_C2_Day_2_R3 + x_T3_C2_Day_2_R4 + x_T3_C2_Day_3_R1 + x_T3_C2_Day_3_R2 + x_T3_C2_Day_3_R3 + x_T3_C2_Day_3_R4 + x_T3_C2_Day_4_R1 + x_T3_C2_Day_4_R2 + x_T3_C2_Day_4_R3 + x_T3_C2_Day_4_R4 = 1
 event_Event8: x_T4_C2_Day_1_R1 + x_T4_C2_Day_1_R2 + x_T4_C2_Day_1_R3 + x_T4_C2_Day_1_R4 + x_T4_C2_Day_2_R1 + x_T4_C2_Day_2_R2 + x_T4_C2_Day_2_R3 + x_T4_C2_Day_2_R4 + x_T4_C2_Day_3_R1 + x_T4_C2_Day_3_R2 + x_T4_C2_Day_3_R3 + x_T4_C2_Day_3_R4 + x_T4_C2_Day_4_R1 + x_T4_C2_Day_4_R2 + x_T4_C2_Day_4_R3 + x_T4_C2_Day_4_R4 = 1
 event_Event9: x_T1_C3_Day_1_R1 + x_T1_C3_Day_1_R2 + x_T1_C3_Day_1_R3 + x_T1_C3_Day_1_R4 + x_T1_C3_Day_2_R1 + x_T1_C3_Day_2_R2 + x_T1_C3_Day_2_R3 + x_T1_C3_Day_2_R4 + x_T1_C3_Day_3_R1 + x_T1_C3_Day_3_R2 + x_T1_C3_Day_3_R3 + x_T1_C3_Day_3_R4 + x_T1_C3_Day_4_R1 + x_T1_C3_Day_4_R2 + x_T1_C3_Day_4_R3 + x_T1_C3_Day_4_R4 = 1
 event_Event10: x_T2_C3_Day_1_R1 + x_T2_C3_Day_1_R2 + x_T2_C3_Day_1_R3 + x_T2_C3_Day_1_R4 + x_T2_C3_Day_2_R1 + x_T2_C3_Day_2_R2 + x_T2_C3_Day_2_R3 + x_T2_C3_Day_2_R4 + x_T2_C3_Day_3_R1 + x_T2_C3_Day_3_R2 + x_T2_C3_Day_3_R3 + x_T2_C3_Day_3_R4 + x_T2_C3_Day_4_R1 + x_T2_C3_Day_4_R2 + x_T2_C3_Day_4_R3 + x_T2_C3_Day_4_R4 = 1
 event_Event11: x_T3_C3_Day_1_R1 + x_T3_C3_Day_1_R2 + x_T3_C3_Day_1_R3 + x_T3_C3_Day_1_R4 + x_T3_C3_Day_2_R1 + x_T3_C3_Day_2_R2 + x_T3_C3_Day_2_R3 + x_T3_C3_Day_2_R4 + x_T3_C3_Day_3_R1 + x_T3_C3_Day_3_R2 + x_T3_C3_Day_3_R3 + x_T3_C3_Day_3_R4 + x_T3_C3_Day_4_R1 + x_T3_C3_Day_4_R2 + x_T3_C3_Day_4_R3 + x_T3_C3_Day_4_R4 = 1
 event_Event12: x_T4_C3_Day_1_R1 + x_T4_C3_Day_1_R2 + x_T4_C3_Day_1_R3 + x_T4_C3_Day_1_R4 + x_T4_C3_Day_2_R1 + x_T4_C3_Day_2_R2 + x_T4_C3_Day_2_R3 + x_T4_C3_Day_2_R4 + x_T4_C3_Day_3_R1 + x_T4_C3_Day_3_R2 + x_T4_C3_Day_3_R3 + x_T4_C3_Day_3_R4 + x_T4_C3_Day_4_R1 + x_T4_C3_Day_4_R2 + x_T4_C3_Day_4_R3 + x_T4_C3_Day_4_R4 = 1
 event_Event13: x_T1_C4_Day_1_R1 + x_T1_C4_Day_1_R2 + x_T1_C4_Day_1_R3 + x_T1_C4_Day_1_R4 + x_T1_C4_Day_2_R1 + x_T1_C4_Day_2_R2 + x_T1_C4_Day_2_R3 + x_T1_C4_Day_2_R4 + x_T1_C4_Day_3_R1 + x_T1_C4_Day_3_R2 + x_T1_C4_Day_3_R3 + x_T1_C4_Day_3_R4 + x_T1_C4_Day_4_R1 + x_T1_C4_Day_4_R2 + x_T1_C4_Day_4_R3 + x_T1_C4_Day_4_R4 = 1
 event_Event14: x_T2_C4_Day_1_R1 + x_T2_C4_Day_1_R2 + x_T2_C4_Day_1_R3 + x_T2_C4_Day_1_R4 + x_T2_C4_Day_2_R1 + x_T2_C4_Day_2_R2 + x_T2_C4_Day_2_R3 + x_T2_C4_Day_2_R4 + x_T2_C4_Day_3_R1 + x_T2_C4_Day_3_R2 + x_T2_C4_Day_3_R3 + x_T2_C4_Day_3_R4 + x_T2_C4_Day_4_R1 + x_T2_C4_Day_4_R2 + x_T2_C4_Day_4_R3 + x_T2_C4_Day_4_R4 = 1
 event_Event15: x_T3_C4_Day_1_R1 + x_T3_C4_Day_1_R2 + x_T3_C4_Day_1_R3 + x_T3_C4_Day_1_R4 + x_T3_C4_Day_2_R1 + x_T3_C4_Day_2_R2 + x_T3_C4_Day_2_R3 + x_T3_C4_Day_2_R4 + x_T3_C4_Day_3_R1 + x_T3_C4_Day_3_R2 + x_T3_C4_Day_3_R3 + x_T3_C4_Day_3_R4 + x_T3_C4_Day_4_R1 + x_T3_C4_Day_4_R2 + x_T3_C4_Day_4_R3 + x_T3_C4_Day_4_R4 = 1
 event_Event16: x_T4_C4_Day_1_R1 + x_T4_C4_Day_1_R2 + x_T4_C4_Day_1_R3 + x_T4_C4_Day_1_R4 + x_T4_C4_Day_2_R1 + x_T4_C4_Day_2_R2 + x_T4_C4_Day_2_R3 + x_T4_C4_Day_2_R4 + x_T4_C4_Day_3_R1 + x_T4_C4_Day_3_R2 + x_T4_C4_Day_3_R3 + x_T4_C4_Day_3_R4 + x_T4_C4_Day_4_R1 + x_T4_C4_Day_4_R2 + x_T4_C4_Day_4_R3 + x_T4_C4_Day_4_R4 = 1
 room_R1_Day_1: x_T1_C1_Day_1_R1 + x_T2_C1_Day_1_R1 + x_T3_C1_Day_1_R1 + x_T4_C1_Day_1_R1 + x_T1_C2_Day_1_R1 + x_T2_C2_Day_1_R1 + x_T3_C2_Day_1_R1 + x_T4_C2_Day_1_R1 + x_T1_C3_Day_1_R1 + x_T2_C3_Day_1_R1 + x_T3_C3_Day_1_R1 + x_T4_C3_Day_1_R1 + x_T1_C4_Day_1_R1 + x_T2_C4_Day_1_R1 + x_T3_C4_Day_1_R1 + x_T4_C4_Day_1_R1 <= 1
 room_R2_Day_1: x_T1_C1_Day_1_R2 + x_T2_C1_Day_1_R2 + x_T3_C1_Day_1_R2 + x_T4_C1_Day_1_R2 + x_T1_C2_Day_1_R2 + x_T2_C2_Day_1_R2 + x_T3_C2_Day_1_R2 + x_T4_C2_Day_1_R2 + x_T1_C3_Day_1_R2 + x_T2_C3_Day_1_R2 + x_T3_C3_Day_1_R2 + x_T4_C3_Day_1_R2 + x_T1_C4_Day_1_R2 + x_T2_C4_Day_1_R2 + x_T3_C4_Day_1_R2 + x_T4_C4_Day_1_R2 <= 1
 room_R3_Day_1: x_T1_C1_Day_1_R3 + x_T2_C1_Day_1_R3 + x_T3_C1_Day_1_R3 + x_T4_C1_Day_1_R3 + x_T1_C2_Day_1_R3 + x_T2_C2_Day_1_R3 + x_T3_C2_Day_1_R3 + x_T4_C2_Day_1_R3 + x_T1_C3_Day_1_R3 + x_T2_C3_Day_1_R3 + x_T3_C3_Day_1_R3 + x_T4_C3_Day_1_R3 + x_T1_C4_Day_1_R3 + x_T2_C4_Day_1_R3 + x_T3_C4_Day_1_R3 + x_T4_C4_Day_1_R3 <= 1
 room_R4_Day_1: x_T1_C1_Day_1_R4 + x_T2_C1_Day_1_R4 + x_T3_C1_Day_1_R4 + x_T4_C1_Day_1_R4 + x_T1_C2_Day_1_R4 + x_T2_C2_Day_1_R4 + x_T3_C2_Day_1_R4 + x_T4_C2_Day_1_R4 + x_T1_C3_Day_1_R4 + x_T2_C3_Day_1_R4 + x_T3_C3_Day_1_R4 + x_T4_C3_Day_1_R4 + x_T1_C4_Day_1_R4 + x_T2_C4_Day_1_R4 + x_T3_C4_Day_1_R4 + x_T4_C4_Day_1_R4 <= 1
 room_R1_Day_2: x_T1_C1_Day_2_R1 + x_T2_C1_Day_2_R1 + x_T3_C1_Day_2_R1 + x_T4_C1_Day_2_R1 + x_T1_C2_Day_2_R1 + x_T2_C2_Day_2_R1 + x_T3_C2_Day_2_R1 + x_T4_C2_Day_2_R1 + x_T1_C3_Day_2_R1 + x_T2_C3_Day_2_R1 + x_T3_C3_Day_2_R1 + x_T4_C3_Day_2_R1 + x_T1_C4_Day_2_R1 + x_T2_C4_Day_2_R1 + x_T3_C4_Day_2_R1 + x_T4_C4_Day_2_R1 <= 1
 room_R2_Day_2: x_T1_C1_Day_2_R2 + x_T2_C1_Day_2_R2 + x_T3_C1_Day_2_R2 + x_T4_C1_Day_2_R2 + x_T1_C2_Day_2_R2 + x_T2_C2_Day_2_R2 + x_T3_C2_Day_2_R2 + x_T4_C2_Day_2_R2 + x_T1_C3_Day_2_R2 + x_T2_C3_Day_2_R2 + x_T3_C3_Day_2_R2 + x_T4_C3_Day_2_R2 + x_T1_C4_Day_2_R2 + x_T2_C4_Day_2_R2 + x_T3_C4_Day_2_R2 + x_T4_C4_Day_2_R2 <= 1
 room_R3_Day_2: x_T1_C1_Day_2_R3 + x_T2_C1_Day_2_R3 + x_T3_C1_Day_2_R3 + x_T4_C1_Day_2_R3 + x_T1_C2_Day_2_R3 + x_T2_C2_Day_2_R3 + x_T3_C2_Day_2_R3 + x_T4_C2_Day_2_R3 + x_T1_C3_Day_2_R3 + x_T2_C3_Day_2_R3 + x_T3_C3_Day_2_R3 + x_T4_C3_Day_2_R3 + x_T1_C4_Day_2_R3 + x_T2_C4_Day_2_R3 + x_T3_C4_Day_2_R3 + x_T4_C4_Day_2_R3 <= 1
 room_R4_Day_2: x_T1_C1_Day_2_R4 + x_T2_C1_Day_2_R4 + x_T3_C1_Day_2_R4 + x_T4_C1_Day_2_R4 + x_T1_C2_Day_2_R4 + x_T2_C2_Day_2_R4 + x_T3_C2_Day_2_R4 + x_T4_C2_Day_2_R4 + x_T1_C3_Day_2_R4 + x_T2_C3_Day_2_R4 + x_T3_C3_Day_2_R4 + x_T4_C3_Day_2_R4 + x_T1_C4_Day_2_R4 + x_T2_C4_Day_2_R4 + x_T3_C4_Day_2_R4 + x_T4_C4_Day_2_R4 <= 1
 room_R1_Day_3: x_T1_C1_Day_3_R1 + x_T2_C1_Day_3_R1 + x_T3_C1_Day_3_R1 + x_T4_C1_Day_3_R1 + x_T1_C2_Day_3_R1 + x_T2_C2_Day_3_R1 + x_T3_C2_Day_3_R1 + x_T4_C2_Day_3_R1 + x_T1_C3_Day_3_R1 + x_T2_C3_Day_3_R1 + x_T3_C3_Day_3_R1 + x_T4_C3_Day_3_R1 + x_T1_C4_Day_3_R1 + x_T2_C4_Day_3_R1 + x_T3_C4_Day_3_R1 + x_T4_C4_Day_3_R1 <= 1
 room_R2_Day_3: x_T1_C1_Day_3_R2 + x_T2_C1_Day_3_R2 + x_T3_C1_Day_3_R2 + x_T4_C1_Day_3_R2 + x_T1_C2_Day_3_R2 + x_T2_C2_Day_3_R2 + x_T3_C2_Day_3_R2 + x_T4_C2_Day_3_R2 + x_T1_C3_Day_3_R2 + x_T2_C3_Day_3_R2 + x_T3_C3_Day_3_R2 + x_T4_C3_Day_3_R2 + x_T1_C4_Day_3_R2 + x_T2_C4_Day_3_R2 + x_T3_C4_Day_3_R2 + x_T4_C4_Day_3_R2 <= 1
 room_R3_Day_3: x_T1_C1_Day_3_R3 + x_T2_C1_Day_3_R3 + x_T3_C1_Day_3_R3 + x_T4_C1_Day_3_R3 + x_T1_C2_Day_3_R3 + x_T2_C2_Day_3_R3 + x_T3_C2_Day_3_R3 + x_T4_C2_Day_3_R3 + x_T1_C3_Day_3_R3 + x_T2_C3_Day_3_R3 + x_T3_C3_Day_3_R3 + x_T4_C3_Day_3_R3 + x_T1_C4_Day_3_R3 + x_T2_C4_Day_3_R3 + x_T3_C4_Day_3_R3 + x_T4_C4_Day_3_R3 <= 1
 room_R4_Day_3: x_T1_C1_Day_3_R4 + x_T2_C1_Day_3_R4 + x_T3_C1_Day_3_R4 + x_T4_C1_Day_3_R4 + x_T1_C2_Day_3_R4 + x_T2_C2_Day_3_R4 + x_T3_C2_Day_3_R4 + x_T4_C2_Day_3_R4 + x_T1_C3_Day_3_R4 + x_T2_C3_Day_3_R4 + x_T3_C3_Day_3_R4 + x_T4_C3_Day_3_R4 + x_T1_C4_Day_3_R4 + x_T2_C4_Day_3_R4 + x_T3_C4_Day_3_R4 + x_T4_C4_Day_3_R4 <= 1
 room_R1_Day_4: x_T1_C1_Day_4_R1 + x_T2_C1_Day_4_R1 + x_T3_C1_Day_4_R1 + x_T4_C1_Day_4_R1 + x_T1_C2_Day_4_R1 + x_T2_C2_Day_4_R1 + x_T3_C2_Day_4_R1 + x_T4_C2_Day_4_R1 + x_T1_C3_Day_4_R1 + x_T2_C3_Day_4_R1 + x_T3_C3_Day_4_R1 + x_T4_C3_Day_4_R1 + x_T1_C4_Day_4_R1 + x_T2_C4_Day_4_R1 + x_T3_C4_Day_4_R1 + x_T4_C4_Day_4_R1 <= 1
 room_R2_Day_4: x_T1_C1_Day_4_R2 + x_T2_C1_Day_4_R2 + x_T3_C1_Day_4_R2 + x_T4_C1_Day_4_R2 + x_T1_C2_Day_4_R2 + x_T2_C2_Day_4_R2 + x_T3_C2_Day_4_R2 + x_T4_C2_Day_4_R2 + x_T1_C3_Day_4_R2 + x_T2_C3_Day_4_R2 + x_T3_C3_Day_4_R2 + x_T4_C3_Day_4_R2 + x_T1_C4_Day_4_R2 + x_T2_C4_Day_4_R2 + x_T3_C4_Day_4_R2 + x_T4_C4_Day_4_R2 <= 1
 room_R3_Day_4: x_T1_C1_Day_4_R3 + x_T2_C1_Day_4_R3 + x_T3_C1_Day_4_R3 + x_T4_C1_Day_4_R3 + x_T1_C2_Day_4_R3 + x_T2_C2_Day_4_R3 + x_T3_C2_Day_4_R3 + x_T4_C2_Day_4_R3 + x_T1_C3_Day_4_R3 + x_T2_C3_Day_4_R3 + x_T3_C3_Day_4_R3 + x_T4_C3_Day_4_R3 + x_T1_C4_Day_4_R3 + x_T2_C4_Day_4_R3 + x_T3_C4_Day_4_R3 + x_T4_C4_Day_4_R3 <= 1
 room_R4_Day_4: x_T1_C1_Day_4_R4 + x_T2_C1_Day_4_R4 + x_T3_C1_Day_4_R4 + x_T4_C1_Day_4_R4 + x_T1_C2_Day_4_R4 + x_T2_C2_Day_4_R4 + x_T3_C2_Day_4_R4 + x_T4_C2_Day_4_R4 + x_T1_C3_Day_4_R4 + x_T2_C3_Day_4_R4 + x_T3_C3_Day_4_R4 + x_T4_C3_Day_4_R4 + x_T1_C4_Day_4_R4 + x_T2_C4_Day_4_R4 + x_T3_C4_Day_4_R4 + x_T4_C4_Day_4_R4 <= 1
 teacher_T3_Day_1: x_T3_C1_Day_1_R1 + x_T3_C1_Day_1_R2 + x_T3_C1_Day_1_R3 + x_T3_C1_Day_1_R4 + x_T3_C2_Day_1_R1 + x_T3_C2_Day_1_R2 + x_T3_C2_Day_1_R3 + x_T3_C2_Day_1_R4 + x_T3_C3_Day_1_R1 + x_T3_C3_Day_1_R2 + x_T3_C3_Day_1_R3 + x_T3_C3_Day_1_R4 + x_T3_C4_Day_1_R1 + x_T3_C4_Day_1_R2 + x_T3_C4_Day_1_R3 + x_T3_C4_Day_1_R4 <= 1
 teacher_T3_Day_2: x_T3_C1_Day_2_R1 + x_T3_C1_Day_2_R2 + x_T3_C1_Day_2_R3 + x_T3_C1_Day_2_R4 + x_T3_C2_Day_2_R1 + x_T3_C2_Day_2_R2 + x_T3_C2_Day_2_R3 + x_T3_C2_Day_2_R4 + x_T3_C3_Day_2_R1 + x_T3_C3_Day_2_R2 + x_T3_C3_Day_2_R3 + x_T3_C3_Day_2_R4 + x_T3_C4_Day_2_R1 + x_T3_C4_Day_2_R2 + x_T3_C4_Day_2_R3 + x_T3_C4_Day_2_R4 <= 1
 teacher_T3_Day_3: x_T3_C1_Day_3_R1 + x_T3_C1_Day_3_R2 + x_T3_C1_Day_3_R3 + x_T3_C1_Day_3_R4 + x_T3_C2_Day_3_R1 + x_T3_C2_Day_3_R2 + x_T3_C2_Day_3_R3 + x_T3_C2_Day_3_R4 + x_T3_C3_Day_3_R1 + x_T3_C3_Day_3_R2 + x_T3_C3_Day_3_R3 + x_T3_C3_Day_3_R4 + x_T3_C4_Day_3_R1 + x_T3_C4_Day_3_R2 + x_T3_C4_Day_3_R3 + x_T3_C4_Day_3_R4 <= 1
 teacher_T3_Day_4: x_T3_C1_Day_4_R1 + x_T3_C1_Day_4_R2 + x_T3_C1_Day_4_R3 + x_T3_C1_Day_4_R4 + x_T3_C2_Day_4_R1 + x_T3_C2_Day_4_R2 + x_T3_C2_Day_4_R3 + x_T3_C2_Day_4_R4 + x_T3_C3_Day_4_R1 + x_T3_C3_Day_4_R2 + x_T3_C3_Day_4_R3 + x_T3_C3_Day_4_R4 + x_T3_C4_Day_4_R1 + x_T3_C4_Day_4_R2 + x_T3_C4_Day_4_R3 + x_T3_C4_Day_4_R4 <= 1
 teacher_T1_Day_1: x_T1_C1_Day_1_R1 + x_T1_C1_Day_1_R2 + x_T1_C1_Day_1_R3 + x_T1_C1_Day_1_R4 + x_T1_C2_Day_1_R1 + x_T1_C2_Day_1_R2 + x_T1_C2_Day_1_R3 + x_T1_C2_Day_1_R4 + x_T1_C3_Day_1_R1 + x_T1_C3_Day_1_R2 + x_T1_C3_Day_1_R3 + x_T1_C3_Day_1_R4 + x_T1_C4_Day_1_R1 + x_T1_C4_Day_1_R2 + x_T1_C4_Day_1_R3 + x_T1_C4_Day_1_R4 <= 1
 teacher_T1_Day_2: x_T1_C1_Day_2_R1 + x_T1_C1_Day_2_R2 + x_T1_C1_Day_2_R3 + x_T1_C1_Day_2_R4 + x_T1_C2_Day_2_R1 + x_T1_C2_Day_2_R2 + x_T1_C2_Day_2_R3 + x_T1_C2_Day_2_R4 + x_T1_C3_Day_2_R1 + x_T1_C3_Day_2_R2 + x_T1_C3_Day_2_R3 + x_T1_C3_Day_2_R4 + x_T1_C4_Day_2_R1 + x_T1_C4_Day_2_R2 + x_T1_C4_Day_2_R3 + x_T1_C4_Day_2_R4 <= 1
 teacher_T1_Day_3: x_T1_C1_Day_3_R1 + x_T1_C1_Day_3_R2 + x_T1_C1_Day_3_R3 + x_T1_C1_Day_3_R4 + x_T1_C2_Day_3_R1 + x_T1_C2_Day_3_R2 + x_T1_C2_Day_3_R3 + x_T1_C2_Day_3_R4 + x_T1_C3_Day_3_R1 + x_T1_C3_Day_3_R2 + x_T1_C3_Day_3_R3 + x_T1_C3_Day_3_R4 + x_T1_C4_Day_3_R1 + x_T1_C4_Day_3_R2 + x_T1_C4_Day_3_R3 + x_T1_C4_Day_3_R4 <= 1
 teacher_T1_Day_4: x_T1_C1_Day_4_R1 + x_T1_C1_Day_4_R2 + x_T1_C1_Day_4_R3 + x_T1_C1_Day_4_R4 + x_T1_C2_Day_4_R1 + x_T1_C2_Day_4_R2 + x_T1_C2_Day_4_R3 + x_T1_C2_Day_4_R4 + x_T1_C3_Day_4_R1 + x_T1_C3_Day_4_R2 + x_T1_C3_Day_4_R3 + x_T1_C3_Day_4_R4 + x_T1_C4_Day_4_R1 + x_T1_C4_Day_4_R2 + x_T1_C4_Day_4_R3 + x_T1_C4_Day_4_R4 <= 1
 teacher_T2_Day_1: x_T2_C1_Day_1_R1 + x_T2_C1_Day_1_R2 + x_T2_C1_Day_1_R3 + x_T2_C1_Day_1_R4 + x_T2_C2_Day_1_R1 + x_T2_C2_Day_1_R2 + x_T2_C2_Day_1_R3 + x_T2_C2_Day_1_R4 + x_T2_C3_Day_1_R1 + x_T2_C3_Day_1_R2 + x_T2_C3_Day_1_R3 + x_T2_C3_Day_1_R4 + x_T2_C4_Day_1_R1 + x_T2_C4_Day_1_R2 + x_T2_C4_Day_1_R3 + x_T2_C4_Day_1_R4 <= 1
 teacher_T2_Day_2: x_T2_C1_Day_2_R1 + x_T2_C1_Day_2_R2 + x_T2_C1_Day_2_R3 + x_T2_C1_Day_2_R4 + x_T2_C2_Day_2_R1 + x_T2_C2_Day_2_R2 + x_T2_C2_Day_2_R3 + x_T2_C2_Day_2_R4 + x_T2_C3_Day_2_R1 + x_T2_C3_Day_2_R2 + x_T2_C3_Day_2_R3 + x_T2_C3_Day_2_R4 + x_T2_C4_Day_2_R1 + x_T2_C4_Day_2_R2 + x_T2_C4_Day_2_R3 + x_T2_C4_Day_2_R4 <= 1
 teacher_T2_Day_3: x_T2_C1_Day_3_R1 + x_T2_C1_Day_3_R2 + x_T2_C1_Day_3_R3 + x_T2_C1_Day_3_R4 + x_T2_C2_Day_3_R1 + x_T2_C2_Day_3_R2 + x_T2_C2_Day_3_R3 + x_T2_C2_Day_3_R4 + x_T2_C3_Day_3_R1 + x_T2_C3_Day_3_R2 + x_T2_C3_Day_3_R3 + x_T2_C3_Day_3_R4 + x_T2_C4_Day_3_R1 + x_T2_C4_Day_3_R2 + x_T2_C4_Day_3_R3 + x_T2_C4_Day_3_R4 <= 1
 teacher_T2_Day_4: x_T2_C1_Day_4_R1 + x_T2_C1_Day_4_R2 + x_T2_C1_Day_4_R3 + x_T2_C1_Day_4_R4 + x_T2_C2_Day_4_R1 + x_T2_C2_Day_4_R2 + x_T2_C2_Day_4_R3 + x_T2_C2_Day_4_R4 + x_T2_C3_Day_4_R1 + x_T2_C3_Day_4_R2 + x_T2_C3_Day_4_R3 + x_T2_C3_Day_4_R4 + x_T2_C4_Day_4_R1 + x_T2_C4_Day_4_R2 + x_T2_C4_Day_4_R3 + x_T2_C4_Day_4_R4 <= 1
 teacher_T4_Day_1: x_T4_C1_Day_1_R1 + x_T4_C1_Day_1_R2 + x_T4_C1_Day_1_R3 + x_T4_C1_Day_1_R4 + x_T4_C2_Day_1_R1 + x_T4_C2_Day_1_R2 + x_T4_C2_Day_1_R3 + x_T4_C2_Day_1_R4 + x_T4_C3_Day_1_R1 + x_T4_C3_Day_1_R2 + x_T4_C3_Day_1_R3 + x_T4_C3_Day_1_R4 + x_T4_C4_Day_1_R1 + x_T4_C4_Day_1_R2 + x_T4_C4_Day_1_R3 + x_T4_C4_Day_1_R4 <= 1
 teacher_T4_Day_2: x_T4_C1_Day_2_R1 + x_T4_C1_Day_2_R2 + x_T4_C1_Day_2_R3 + x_T4_C1_Day_2_R4 + x_T4_C2_Day_2_R1 + x_T4_C2_Day_2_R2 + x_T4_C2_Day_2_R3 + x_T4_C2_Day_2_R4 + x_T4_C3_Day_2_R1 + x_T4_C3_Day_2_R2 + x_T4_C3_Day_2_R3 + x_T4_C3_Day_2_R4 + x_T4_C4_Day_2_R1 + x_T4_C4_Day_2_R2 + x_T4_C4_Day_2_R3 + x_T4_C4_Day_2_R4 <= 1
 teacher_T4_Day_3: x_T4_C1_Day_3_R1 + x_T4_C1_Day_3_R2 + x_T4_C1_Day_3_R3 + x_T4_C1_Day_3_R4 + x_T4_C2_Day_3_R1 + x_T4_C2_Day_3_R2 + x_T4_C2_Day_3_R3 + x_T4_C2_Day_3_R4 + x_T4_C3_Day_3_R1 + x_T4_C3_Day_3_R2 + x_T4_C3_Day_3_R3 + x_T4_C3_Day_3_R4 + x_T4_C4_Day_3_R1 + x_T4_C4_Day_3_R2 + x_T4_C4_Day_3_R3 + x_T4_C4_Day_3_R4 <= 1
 teacher_T4_Day_4: x_T4_C1_Day_4_R1 + x_T4_C1_Day_4_R2 + x_T4_C1_Day_4_R3 + x_T4_C1_Day_4_R4 + x_T4_C2_Day_4_R1 + x_T4_C2_Day_4_R2 + x_T4_C2_Day_4_R3 + x_T4_C2_Day_4_R4 + x_T4_C3_Day_4_R1 + x_T4_C3_Day_4_R2 + x_T4_C3_Day_4_R3 + x_T4_C3_Day_4_R4 + x_T4_C4_Day_4_R1 + x_T4_C4_Day_4_R2 + x_T4_C4_Day_4_R3 + x_T4_C4_Day_4_R4 <= 1
Binary
 x_T1_C1_Day_1_R1
 x_T1_C1_Day_1_R2
 x_T1_C1_Day_1_R3
 x_T1_C1_Day_1_R4
 x_T1_C1_Day_2_R1
 x_T1_C1_Day_2_R2
 x_T1_C1_Day_2_R3
 x_T1_C1_Day_2_R4
 x_T1_C1_Day_3_R1
 x_T1_C1_Day_3_R2
 x_T1_C1_Day_3_R3
 x_T1_C1_Day_3_R4
 x_T1_C1_Day_4_R1
 x_T1_C1_Day_4_R2
 x_T1_C1_Day_4_R3
 x_T1_C1_Day_4_R4
 x_T2_C1_Day_1_R1
 x_T2_C1_Day_1_R2
 x_T2_C1_Day_1_R3
 x_T2_C1_Day_1_R4
 x_T2_C1_Day_2_R1
 x_T2_C1_Day_2_R2
 x_T2_C1_Day_2_R3
 x_T2_C1_Day_2_R4
 x_T2_C1_Day_3_R1
 x_T2_C1_Day_3_R2
 x_T2_C1_Day_3_R3
 x_T2_C1_Day_3_R4
 x_T2_C1_Day_4_R1
 x_T2_C1_Day_4_R2
 x_T2_C1_Day_4_R3
 x_T2_C1_Day_4_R4
 x_T3_C1_Day_1_R1
 x_T3_C1_Day_1_R2
 x_T3_C1_Day_1_R3
 x_T3_C1_Day_1_R4
 x_T3_C1_Day_2_R1
 x_T3_C1_Day_2_R2
 x_T3_C1_Day_2_R3
 x_T3_C1_Day_2_R4
 x_T3_C1_Day_3_R1
 x_T3_C1_Day_3_R2
 x_T3_C1_Day_3_R3
 x_T3_C1_Day_3_R4
 x_T3_C1_Day_4_R1
 x_T3_C1_Day_4_R2
 x_T3_C1_Day_4_R3
 x_T3_C1_Day_4_R4
 x_T4_C1_Day_1_R1
 x_T4_C1_Day_1_R2
 x_T4_C1_Day_1_R3
 x_T4_C1_Day_1_R4
 x_T4_C1_Day_2_R1
 x_T4_C1_Day_2_R2
 x_T4_C1_Day_2_R3
 x_T4_C1_Day_2_R4
 x_T4_C1_Day_3_R1
 x_T4_C1_Day_3_R2
 x_T4_C1_Day_3_R3
 x_T4_C1_Day_3_R4
 x_T4_C1_Day_4_R1
 x_T4_C1_Day_4_R2
 x_T4_C1_Day_4_R3
 x_T4_C1_Day_4_R4
 x_T1_C2_Day_1_R1
 x_T1_C2_Day_1_R2
 x_T1_C2_Day_1_R3
 x_T1_C2_Day_1_R4
 x_T1_C2_Day_2_R1
 x_T1_C2_Day_2_R2
 x_T1_C2_Day_2_R3
 x_T1_C2_Day_2_R4
 x_T1_C2_Day_3_R1
 x_T1_C2_Day_3_R2
 x_T1_C2_Day_3_R3
 x_T1_C2_Day_3_R4
 x_T1_C2_Day_4_R1
 x_T1_C2_Day_4_R2
 x_T1_C2_Day_4_R3
 x_T1_C2_Day_4_R4
 x_T2_C2_Day_1_R1
 x_T2_C2_Day_1_R2
 x_T2_C2_Day_1_R3
 x_T2_C2_Day_1_R4
 x_T2_C2_Day_2_R1
 x_T2_C2_Day_2_R2
 x_T2_C2_Day_2_R3
 x_T2_C2_Day_2_R4
 x_T2_C2_Day_3_R1
 x_T2_C2_Day_3_R2
 x_T2_C2_Day_3_R3
 x_T2_C2_Day_3_R4
 x_T2_C2_Day_4_R1
 x_T2_C2_Day_4_R2
 x_T2_C2_Day_4_R3
 x_T2_C2_Day_4_R4
 x_T3_C2_Day_1_R1
 x_T3_C2_Day_1_R2
 x_T3_C2_Day_1_R3
 x_T3_C2_Day_1_R4
 x_T3_C2_Day_2_R1
 x_T3_C2_Day_2_R2
 x_T3_C2_Day_2_R3
 x_T3_C2_Day_2_R4
 x_T3_C2_Day_3_R1
 x_T3_C2_Day_3_R2
 x_T3_C2_Day_3_R3
 x_T3_C2_Day_3_R4
 x_T3_C2_Day_4_R1
 x_T3_C2_Day_4_R2
 x_T3_C2_Day_4_R3
 x_T3_C2_Day_4_R4
 x_T4_C2_Day_1_R1
 x_T4_C2_Day_1_R2
 x_T4_C2_Day_1_R3
 x_T4_C2_Day_1_R4
 x_T4_C2_Day_2_R1
 x_T4_C2_Day_2_R2
 x_T4_C2_Day_2_R3
 x_T4_C2_Day_2_R4
 x_T4_C2_Day_3_R1
 x_T4_C2_Day_3_R2
 x_T4_C2_Day_3_R3
 x_T4_C2_Day_3_R4
 x_T4_C2_Day_4_R1
 x_T4_C2_Day_4_R2
 x_T4_C2_Day_4_R3
 x_T4_C2_Day_4_R4
 x_T1_C3_Day_1_R1
 x_T1_C3_Day_1_R2
 x_T1_C3_Day_1_R3
 x_T1_C3_Day_1_R4
 x_T1_C3_Day_2_R1
 x_T1_C3_Day_2_R2
 x_T1_C3_Day_2_R3
 x_T1_C3_Day_2_R4
 x_T1_C3_Day_3_R1
 x_T1_C3_Day_3_R2
 x_T1_C3_Day_3_R3
 x_T1_C3_Day_3_R4
 x_T1_C3_Day_4_R1
 x_T1_C3_Day_4_R2
 x_T1_C3_Day_4_R3
 x_T1_C3_Day_4_R4
 x_T2_C3_Day_1_R1
 x_T2_C3_Day_1_R2
 x_T2_C3_Day_1_R3
 x_T2_C3_Day_1_R4
 x_T2_C3_Day_2_R1
 x_T2_C3_Day_2_R2
 x_T2_C3_Day_2_R3
 x_T2_C3_Day_2_R4
 x_T2_C3_Day_3_R1
 x_T2_C3_Day_3_R2
 x_T2_C3_Day_3_R3
 x_T2_C3_Day_3_R4
 x_T2_C3_Day_4_R1
 x_T2_C3_Day_4_R2
 x_T2_C3_Day_4_R3
 x_T2_C3_Day_4_R4
 x_T3_C3_Day_1_R1
 x_T3_C3_Day_1_R2
 x_T3_C3_Day_1_R3
 x_T3_C3_Day_1_R4
 x_T3_C3_Day_2_R1
 x_T3_C3_Day_2_R2
 x_T3_C3_Day_2_R3
 x_T3_C3_Day_2_R4
 x_T3_C3_Day_3_R1
 x_T3_C3_Day_3_R2
 x_T3_C3_Day_3_R3
 x_T3_C3_Day_3_R4
 x_T3_C3_Day_4_R1
 x_T3_C3_Day_4_R2
 x_T3_C3_Day_4_R3
 x_T3_C3_Day_4_R4
 x_T4_C3_Day_1_R1
 x_T4_C3_Day_1_R2
 x_T4_C3_Day_1_R3
 x_T4_C3_Day_1_R4
 x_T4_C3_Day_2_R1
 x_T4_C3_Day_2_R2
 x_T4_C3_Day_2_R3
 x_T4_C3_Day_2_R4
 x_T4_C3_Day_3_R1
 x_T4_C3_Day_3_R2
 x_T4_C3_Day_3_R3
 x_T4_C3_Day_3_R4
 x_T4_C3_Day_4_R1
 x_T4_C3_Day_4_R2
 x_T4_C3_Day_4_R3
 x_T4_C3_Day_4_R4
 x_T1_C4_Day_1_R1
 x_T1_C4_Day_1_R2
 x_T1_C4_Day_1_R3
 x_T1_C4_Day_1_R4
 x_T1_C4_Day_2_R1
 x_T1_C4_Day_2_R2
 x_T1_C4_Day_2_R3
 x_T1_C4_Day_2_R4
 x_T1_C4_Day_3_R1
 x_T1_C4_Day_3_R2
 x_T1_C4_Day_3_R3
 x_T1_C4_Day_3_R4
 x_T1_C4_Day_4_R1
 x_T1_C4_Day_4_R2
 x_T1_C4_Day_4_R3
 x_T1_C4_Day_4_R4
 x_T2_C4_Day_1_R1
 x_T2_C4_Day_1_R2
 x_T2_C4_Day_1_R3
 x_T2_C4_Day_1_R4
 x_T2_C4_Day_2_R1
 x_T2_C4_Day_2_R2
 x_T2_C4_Day_2_R3
 x_T2_C4_Day_2_R4
 x_T2_C4_Day_3_R1
 x_T2_C4_Day_3_R2
 x_T2_C4_Day_3_R3
 x_T2_C4_Day_3_R4
 x_T2_C4_Day_4_R1
 x_T2_C4_Day_4_R2
 x_T2_C4_Day_4_R3
 x_T2_C4_Day_4_R4
 x_T3_C4_Day_1_R1
 x_T3_C4_Day_1_R2
 x_T3_C4_Day_1_R3
 x_T3_C4_Day_1_R4
 x_T3_C4_Day_2_R1
 x_T3_C4_Day_2_R2
 x_T3_C4_Day_2_R3
 x_T3_C4_Day_2_R4
 x_T3_C4_Day_3_R1
 x_T3_C4_Day_3_R2
 x_T3_C4_Day_3_R3
 x_T3_C4_Day_3_R4
 x_T3_C4_Day_4_R1
 x_T3_C4_Day_4_R2
 x_T3_C4_Day_4_R3
 x_T3_C4_Day_4_R4
 x_T4_C4_Day_1_R1
 x_T4_C4_Day_1_R2
 x_T4_C4_Day_1_R3
 x_T4_C4_Day_1_R4
 x_T4_C4_Day_2_R1
 x_T4_C4_Day_2_R2
 x_T4_C4_Day_2_R3
 x_T4_C4_Day_2_R4
 x_T4_C4_Day_3_R1
 x_T4_C4_Day_3_R2
 x_T4_C4_Day_3_R3
 x_T4_C4_Day_3_R4
 x_T4_C4_Day_4_R1
 x_T4_C4_Day_4_R2
 x_T4_C4_Day_4_R3
 x_T4_C4_Day_4_R4
End
